
Gurobi 9.0.1 (linux64) logging started Fri May  1 00:41:58 2020

Gurobi Optimizer version 9.0.1 build v9.0.1rc0 (linux64)
Optimize a model with 1072 rows, 842 columns and 4116 nonzeros
Model fingerprint: 0xfb164f80
Variable types: 0 continuous, 842 integer (810 binary)
Coefficient statistics:
  Matrix range     [1e+00, 8e+00]
  Objective range  [3e+00, 1e+02]
  Bounds range     [1e+00, 1e+00]
  RHS range        [1e+00, 9e+00]

User MIP start produced solution with objective 571 (0.00s)
Loaded user MIP start with objective 571

Presolve removed 242 rows and 204 columns
Presolve time: 0.02s
Presolved: 830 rows, 638 columns, 3360 nonzeros
Variable types: 0 continuous, 638 integer (610 binary)

Root relaxation: objective 4.127500e+02, 877 iterations, 0.04 seconds

    Nodes    |    Current Node    |     Objective Bounds      |     Work
 Expl Unexpl |  Obj  Depth IntInf | Incumbent    BestBd   Gap | It/Node Time

     0     0  412.75000    0   27  571.00000  412.75000  27.7%     -    0s
     0     0  536.00000    0   57  571.00000  536.00000  6.13%     -    0s
     0     0  536.00000    0   57  571.00000  536.00000  6.13%     -    0s
     0     0  536.45000    0   68  571.00000  536.45000  6.05%     -    0s
     0     0  536.48214    0   66  571.00000  536.48214  6.05%     -    0s
     0     0  540.50000    0   80  571.00000  540.50000  5.34%     -    0s
     0     0  540.50000    0   81  571.00000  540.50000  5.34%     -    0s
     0     0  541.50000    0   89  571.00000  541.50000  5.17%     -    0s
     0     0  541.75000    0   74  571.00000  541.75000  5.12%     -    0s
     0     0  541.75000    0   78  571.00000  541.75000  5.12%     -    0s
     0     0  541.75000    0   77  571.00000  541.75000  5.12%     -    0s
     0     0  541.75000    0   78  571.00000  541.75000  5.12%     -    0s
     0     0  542.20000    0   74  571.00000  542.20000  5.04%     -    0s
     0     0  542.20000    0   80  571.00000  542.20000  5.04%     -    0s
     0     0  542.20000    0   67  571.00000  542.20000  5.04%     -    0s
     0     0  542.20000    0   68  571.00000  542.20000  5.04%     -    0s
     0     0  542.20000    0   60  571.00000  542.20000  5.04%     -    0s
     0     0  542.20000    0   60  571.00000  542.20000  5.04%     -    0s
     0     0  542.20000    0   85  571.00000  542.20000  5.04%     -    0s
     0     0  542.20000    0   85  571.00000  542.20000  5.04%     -    0s
     0     0  542.20000    0   74  571.00000  542.20000  5.04%     -    0s
     0     0  542.20000    0   74  571.00000  542.20000  5.04%     -    0s
     0     2  542.20000    0   70  571.00000  542.20000  5.04%     -    0s
   449   204  553.71293   16  317  571.00000  547.52000  4.11%   147    5s
   786   333  559.05485   11  375  571.00000  548.62683  3.92%   164   10s
  1041   441  549.12772   13  319  571.00000  549.12772  3.83%   168   15s
  1188   474     cutoff   28       571.00000  549.12772  3.83%   162   20s
  1578   503  562.08172   25  124  571.00000  550.00000  3.68%   157   25s
  1919   500  566.03566   24  148  571.00000  552.06801  3.32%   159   30s
  2279   513  553.32922   20  172  571.00000  552.70996  3.20%   161   35s
  2550   564  557.75863   20  252  571.00000  553.69957  3.03%   163   40s
  2943   637  555.48713   20  246  571.00000  554.62284  2.87%   163   45s
  3290   695  561.75825   23  138  571.00000  555.42546  2.73%   165   50s
  3676   738  568.82600   28  167  571.00000  556.12920  2.60%   167   55s
  3996   765  567.04532   26  344  571.00000  556.68978  2.51%   168   60s
  4319   791 infeasible   26       571.00000  557.25291  2.41%   170   65s
  4660   788  561.53473   22  271  571.00000  557.88214  2.30%   171   70s
  4986   781  563.23563   22  332  571.00000  558.29585  2.22%   174   75s
  5336   771  559.34655   20  221  571.00000  559.00000  2.10%   174   80s
  5709   764     cutoff   29       571.00000  559.48690  2.02%   175   85s
  6086   741  564.63794   24  172  571.00000  560.09248  1.91%   174   90s
  6349   722  566.99036   25  277  571.00000  560.48338  1.84%   175   95s
  6725   695  566.16000   23   98  571.00000  561.07109  1.74%   175  100s
  7113   633     cutoff   26       571.00000  561.82749  1.61%   175  105s
  7609   548     cutoff   23       571.00000  562.71066  1.45%   174  110s
  8068   453     cutoff   30       571.00000  563.58424  1.30%   173  115s
  8541   351     cutoff   26       571.00000  564.53333  1.13%   172  120s
  9042   176  567.53541   24  283  571.00000  566.32108  0.82%   171  125s

Cutting planes:
  Learned: 7
  Gomory: 15
  Cover: 34
  Implied bound: 139
  Projected implied bound: 1
  MIR: 18
  Flow cover: 54
  GUB cover: 2
  Inf proof: 34
  Zero half: 17
  RLT: 8
  Relax-and-lift: 4

Explored 9360 nodes (1581878 simplex iterations) in 128.10 seconds
Thread count was 1 (of 40 available processors)

Solution count 1: 571 

Optimal solution found (tolerance 1.00e-04)
Best objective 5.710000000000e+02, best bound 5.710000000000e+02, gap 0.0000%

User-callback calls 41685, time in user-callback 0.03 sec
